% File represents an instance of a Composite Structure problem to be solved by a CP framework
% Created on 2025-03-26 10:41:42.818
T = 50;
n = 25;
m = 40;
edges = [(1, 2),
(6, 7),
(11, 12),
(16, 17),
(21, 22),
(2, 3),
(7, 8),
(12, 13),
(17, 18),
(22, 23),
(3, 4),
(8, 9),
(14, 13),
(19, 18),
(24, 23),
(4, 5),
(9, 10),
(14, 15),
(20, 19),
(24, 25),
(1, 6),
(6, 11),
(11, 16),
(16, 21),
(2, 7),
(7, 12),
(12, 17),
(17, 22),
(3, 8),
(8, 13),
(13, 18),
(18, 23),
(4, 9),
(14, 9),
(14, 19),
(19, 24),
(5, 10),
(15, 10),
(20, 15),
(20, 25)];
counts = [|10, 6, 10, 24,
|8, 6, 8, 22,
|8, 6, 8, 16,
|6, 6, 6, 14,
|6, 4, 6, 12,
|10, 6, 10, 18,
|8, 4, 8, 18,
|6, 4, 6, 16,
|6, 4, 6, 10,
|6, 2, 6, 8,
|8, 6, 8, 16,
|8, 4, 8, 12,
|6, 2, 6, 12,
|6, 4, 6, 12,
|6, 2, 6, 10,
|8, 6, 8, 10,
|8, 2, 8, 10,
|6, 2, 6, 8,
|6, 2, 6, 10,
|6, 2, 6, 12,
|8, 2, 8, 8,
|6, 2, 6, 8,
|6, 2, 6, 6,
|6, 2, 6, 8,
|6, 2, 6, 6|];
